Minimize

t_0


Subject To

a0: t_0 - 10 which_0_0 - 5 which_0_1 - 12 which_0_2 - 15 which_0_3 - 3 which_0_4 - 1 which_0_5 >= 0
a1: t_0 - 10 which_1_0 - 5 which_1_1 - 12 which_1_2 - 15 which_1_3 - 3 which_1_4 - 1 which_1_5 >= 0
a2: t_0 - 10 which_2_0 - 5 which_2_1 - 12 which_2_2 - 15 which_2_3 - 3 which_2_4 - 1 which_2_5 >= 0
a3: t_0 - 10 which_3_0 - 5 which_3_1 - 12 which_3_2 - 15 which_3_3 - 3 which_3_4 - 1 which_3_5 >= 0
b0: which_0_0 + which_1_0 + which_2_0 + which_3_0 = 1
b1: which_0_1 + which_1_1 + which_2_1 + which_3_1 = 1
b2: which_0_2 + which_1_2 + which_2_2 + which_3_2 = 1
b3: which_0_3 + which_1_3 + which_2_3 + which_3_3 = 1
b4: which_0_4 + which_1_4 + which_2_4 + which_3_4 = 1
b5: which_0_5 + which_1_5 + which_2_5 + which_3_5 = 1




Binary

which_0_0 which_0_1 which_0_2 which_0_3 which_0_4 which_0_5 which_1_0 which_1_1 which_1_2 which_1_3 which_1_4 which_1_5 which_2_0 which_2_1 which_2_2 which_2_3 which_2_4 which_2_5 which_3_0 which_3_1 which_3_2 which_3_3 which_3_4 which_3_5


General

 t_0



End
